
Gurobi 9.1.2 (linux64) logging started Fri Apr 15 11:50:27 2022

Changed value of parameter LogFile to ls_sym_v-(0, 7).log
   Prev:   Default: 
Changed value of parameter MIPFocus to 1
   Prev: 0  Min: 0  Max: 3  Default: 0
Changed value of parameter TimeLimit to 10800.0
   Prev: inf  Min: 0.0  Max: inf  Default: inf
Warning: variable name "X[(1, 0),(3, 0)]" has a space
Warning: constraint name "flow-constr-t0-v(2, 1)" has a space
Warning: to let Gurobi read it back, use rlp format
Gurobi Optimizer version 9.1.2 build v9.1.2rc0 (linux64)
Thread count: 32 physical cores, 64 logical processors, using up to 32 threads
Optimize a model with 4839 rows, 4352 columns and 16576 nonzeros
Model fingerprint: 0xeb4a525a
Variable types: 512 continuous, 3840 integer (3840 binary)
Coefficient statistics:
  Matrix range     [1e+00, 7e+04]
  Objective range  [1e-01, 1e-01]
  Bounds range     [1e+00, 3e+04]
  RHS range        [1e+00, 7e+04]
Presolve removed 323 rows and 336 columns
Presolve time: 0.22s
Presolved: 4516 rows, 4016 columns, 22219 nonzeros
Variable types: 512 continuous, 3504 integer (3504 binary)

Root relaxation: objective 6.400000e+01, 145 iterations, 0.00 seconds

    Nodes    |    Current Node    |     Objective Bounds      |     Work
 Expl Unexpl |  Obj  Depth IntInf | Incumbent    BestBd   Gap | It/Node Time

     0     0   64.00000    0   30          -   64.00000      -     -    0s
     0     0   64.00000    0   43          -   64.00000      -     -    0s
     0     0   64.00000    0   50          -   64.00000      -     -    0s
     0     0   64.00000    0   42          -   64.00000      -     -    0s
     0     0   64.00000    0   59          -   64.00000      -     -    0s
H    0     0                    4144.4999996   64.00000  98.5%     -    0s
H    0     0                    1179.1250000   64.00000  94.6%     -    0s
H    0     0                    1157.8749999   64.00000  94.5%     -    0s
H    0     0                    1157.4999999   64.00000  94.5%     -    0s
     0     0   64.00000    0   28 1157.50000   64.00000  94.5%     -    0s
H    0     0                     105.2500000   64.00000  39.2%     -    1s
     0     0   64.00000    0   32  105.25000   64.00000  39.2%     -    1s
     0     0   64.00000    0   26  105.25000   64.00000  39.2%     -    1s
H    0     0                     104.8750000   64.00000  39.0%     -    1s
     0     0   64.00000    0   28  104.87500   64.00000  39.0%     -    1s
     0     0   64.00000    0   34  104.87500   64.00000  39.0%     -    1s
H    0     0                     102.1250000   64.00000  37.3%     -    1s
H    0     0                     100.8750000   64.00000  36.6%     -    1s
     0     2   64.00000    0   28  100.87500   64.00000  36.6%     -    1s
H    1     4                      99.1250000   64.00000  35.4%   490    2s
H   31    62                      98.3125000   64.00000  34.9%  43.5    3s
H   31    62                      94.0625000   64.00000  32.0%  43.5    3s
H   32    62                      89.7500000   64.00000  28.7%  42.2    3s
H   36    62                      89.3125000   64.00000  28.3%  38.5    3s
H   44    62                      89.2500000   64.00000  28.3%  32.9    3s
H   57    62                      86.6250000   64.00000  26.1%  28.9    3s
H   95   126                      83.6250000   64.00000  23.5%  19.3    4s
H   97   126                      79.7404255   64.00000  19.7%  19.0    4s
H   98   126                      78.8571429   64.00000  18.8%  18.8    4s
H  110   126                      78.2326389   64.00000  18.2%  17.2    4s
H  127   158                      78.1076389   64.00000  18.1%  15.7    4s
H  128   158                      77.8576389   64.00000  17.8%  15.6    4s
H  141   158                      77.6111111   64.00000  17.5%  14.8    4s
H  145   158                      77.2916667   64.00000  17.2%  14.4    4s
H  191   222                      76.0416667   64.00000  15.8%  11.8    6s
H  192   222                      75.0833333   64.00000  14.8%  11.8    6s
H  223   389                      74.6700000   64.00000  14.3%   145    6s
H  238   389                      73.9672030   64.00000  13.5%   137    6s
H  392   421                      73.8662993   64.00000  13.4%  86.4    8s
H  395   421                      73.7487624   64.00000  13.2%  85.7    8s
H  396   421                      73.6386139   64.00000  13.1%  85.5    8s
H  398   421                      73.4753086   64.00000  12.9%  85.1    8s
H  399   421                      72.9652778   64.00000  12.3%  84.9    8s
H  401   421                      72.3841912   64.00000  11.6%  84.5    8s
H  408   421                      72.0781250   64.00000  11.2%  87.1    8s
H  424   794                      71.1157407   64.00000  10.0%  87.9    9s
H  505   794                      71.0950000   64.00000  10.0%  74.6    9s
H  506   794                      71.0722222   64.00000  10.0%  74.4    9s
H  663   794                      70.6713867   64.00000  9.44%  61.4    9s
   801  3360   64.00000   20   65   70.67139   64.00000  9.44%  57.6   10s
H  882  3360                      68.9041667   64.00000  7.12%  54.7   10s
H 3405  3439                      68.2391304   64.00000  6.21%  42.7   13s
H 3406  3439                      68.1041667   64.00000  6.03%  42.7   13s
H 3407  3437                      67.0500000   64.00000  4.55%  42.7   13s
H 3413  3437                      66.8046875   64.00000  4.20%  42.6   13s
  3488  5661   64.00000  103   54   66.80469   64.00000  4.20%  42.4   15s
H 3500  5661                      66.5625000   64.00000  3.85%  42.2   15s
H 3631  5658                      66.0000000   64.00000  3.03%  42.0   15s
H 4370  5658                      65.9062500   64.00000  2.89%  41.3   15s
H 5470  5658                      65.8750000   64.00000  2.85%  37.4   15s
H 5816  8670                      65.6562500   64.00000  2.52%  37.6   18s
H 6156  8669                      65.5937500   64.00000  2.43%  36.3   18s
H 8908  9554                      65.3125000   64.00000  2.01%  33.9   20s
H 8975  9554                      65.1250000   64.00000  1.73%  33.9   20s
H 9331  9466                      64.9062500   64.00000  1.40%  33.5   20s
H10000 17758                      64.8881579   64.00000  1.37%  33.1   21s
H10409 17758                      64.8645833   64.00000  1.33%  32.6   21s
H10509 17758                      64.8125000   64.00000  1.25%  32.6   21s
H10700 17758                      64.8000000   64.00000  1.23%  32.9   21s
H11485 17742                      64.6250000   64.00000  0.97%  32.1   21s
H18342 16502                      64.5750000   64.00000  0.89%  27.5   22s
H18342 15677                      64.4500000   64.00000  0.70%  27.5   22s
H18389 14948                      64.4499999   64.00000  0.70%  29.2   24s
 18445 14991   64.00000   20  126   64.45000   64.00000  0.70%  29.3   27s
H18447 14246                      64.3333333   64.00000  0.52%  29.3   27s
H18456 13535                      64.1250000   64.00000  0.19%  29.3   27s
H18472 12857                      64.1249999   64.00000  0.19%  29.3   27s
H18509 12270                      64.1249998   64.00000  0.19%  29.2   29s
H18510 11663                      64.0833333   64.00000  0.13%  29.2   29s
H18512 11086                      64.0833333   64.00000  0.13%  29.2   29s
H18516 10537                      64.0833332   64.00000  0.13%  29.2   29s
H18517 10016                      64.0833332   64.00000  0.13%  29.2   29s
H18522  9520                      64.0000000   64.00000  0.00%  29.2   29s

Cutting planes:
  Learned: 6
  Gomory: 4
  Cover: 104
  Implied bound: 104
  Clique: 60
  MIR: 68
  Flow cover: 138
  GUB cover: 9
  Zero half: 1
  RLT: 40
  Relax-and-lift: 173

Explored 18541 nodes (550527 simplex iterations) in 29.12 seconds
Thread count was 32 (of 64 available processors)

Solution count 10: 64 64.0833 64.0833 ... 64.45

Optimal solution found (tolerance 1.00e-04)
Best objective 6.400000000000e+01, best bound 6.400000000000e+01, gap 0.0000%
